NAME : portcgen-23-30
COMMENT : portcgen N=23, seed=30
TYPE : TSP
DIMENSION : 23
EDGE_WEIGHT_TYPE : EUC_2D
NODE_COORD_SECTION
1 248794 260487
2 -394540 -373330
3 95755 -336087
4 -62256 -462460
5 440147 379352
6 300018 -122791
7 -194758 144342
8 183714 33348
9 87450 -34403
10 -1065 -348824
11 -13672 100672
12 -243963 605155
13 -75328 -144926
14 204588 158538
15 -42233 -235350
16 -334237 226297
17 -102478 -99924
18 -20512 253707
19 -103612 -24690
20 181353 -269468
21 -280536 54951
22 118146 2552
23 -334441 -6982
